# call as: include C:\Users\btapi\OneDrive\Documents\GitHub\SmithLabCodes\tests\test_lammps\ff_system.in
# ================= ff_acn.in =================
# molecule ID filename toff 0 boff 0 aoff 0 doff 0 ioff 0
mass 1 14.007
mass 2 12.011
mass 3 12.011
mass 4 1.008

pair_modify mix arithmetic

pair_coeff 1 1 0.17 3.250 # Rmin = 2^(1/6)*sigma
pair_coeff 2 2 0.086 3.400
pair_coeff 3 3 0.1094 3.400
pair_coeff 4 4 0.0157 2.650

bond_coeff 1 400 1.458
bond_coeff 2 600 1.157
bond_coeff 3 340 1.09

angle_coeff 1 80 180
angle_coeff 2 35 110
angle_coeff 3 35 109.5

# ================= ff_tea.in =================
# molecule ID filename toff 4 boff 3 aoff 3 doff 0 ioff 0

# ===TEA MASSES===
mass 5 12.011
mass 6 12.011
mass 7 14.007
mass 8 12.011
mass 9 12.011
mass 10 12.011
mass 11 12.011
mass 12 12.011
mass 13 12.011
mass 14 1.008
mass 15 1.008
mass 16 1.008
mass 17 1.008
mass 18 1.008
mass 19 1.008
mass 20 1.008
mass 21 1.008
mass 22 1.008
mass 23 1.008
mass 24 1.008
mass 25 1.008
mass 26 1.008
mass 27 1.008
mass 28 1.008
mass 29 1.008
mass 30 1.008
mass 31 1.008
mass 32 1.008
mass 33 1.008

pair_modify mix arithmetic

# ===TEA COEFFICIENTS===
pair_coeff 5 0.066 3.5000000
pair_coeff 6 0.066 3.5000000
pair_coeff 7 0.170 3.2500000
pair_coeff 8 0.066 3.5000000
pair_coeff 9 0.066 3.5000000
pair_coeff 10 0.066 3.5000000
pair_coeff 11 0.066 3.5000000
pair_coeff 12 0.066 3.5000000
pair_coeff 13 0.066 3.5000000
pair_coeff 14 0.030 2.5000000
pair_coeff 15 0.030 2.5000000
pair_coeff 16 0.030 2.5000000
pair_coeff 17 0.030 2.5000000
pair_coeff 18 0.030 2.5000000
pair_coeff 19 0.030 2.5000000
pair_coeff 20 0.030 2.5000000
pair_coeff 21 0.030 2.5000000
pair_coeff 22 0.030 2.5000000
pair_coeff 23 0.030 2.5000000
pair_coeff 24 0.030 2.5000000
pair_coeff 25 0.030 2.5000000
pair_coeff 26 0.030 2.5000000
pair_coeff 27 0.030 2.5000000
pair_coeff 28 0.030 2.5000000
pair_coeff 29 0.030 2.5000000
pair_coeff 30 0.030 2.5000000
pair_coeff 31 0.030 2.5000000
pair_coeff 32 0.030 2.5000000
pair_coeff 33 0.030 2.5000000

bond_coeff 4 268.0000 1.5290
bond_coeff 5 367.0000 1.4710
bond_coeff 6 367.0000 1.4710
bond_coeff 7 268.0000 1.5290
bond_coeff 8 367.0000 1.4710
bond_coeff 9 268.0000 1.5290
bond_coeff 10 367.0000 1.4710
bond_coeff 11 268.0000 1.5290
bond_coeff 12 340.0000 1.0900
bond_coeff 13 340.0000 1.0900
bond_coeff 14 340.0000 1.0900
bond_coeff 15 340.0000 1.0900
bond_coeff 16 340.0000 1.0900
bond_coeff 17 340.0000 1.0900
bond_coeff 18 340.0000 1.0900
bond_coeff 19 340.0000 1.0900
bond_coeff 20 340.0000 1.0900
bond_coeff 21 340.0000 1.0900
bond_coeff 22 340.0000 1.0900
bond_coeff 23 340.0000 1.0900
bond_coeff 24 340.0000 1.0900
bond_coeff 25 340.0000 1.0900
bond_coeff 26 340.0000 1.0900
bond_coeff 27 340.0000 1.0900
bond_coeff 28 340.0000 1.0900
bond_coeff 29 340.0000 1.0900
bond_coeff 30 340.0000 1.0900
bond_coeff 31 340.0000 1.0900

angle_coeff 4 80.000 111.200
angle_coeff 5 50.000 113.000
angle_coeff 6 80.000 111.200
angle_coeff 7 50.000 113.000
angle_coeff 8 80.000 111.200
angle_coeff 9 50.000 113.000
angle_coeff 10 80.000 111.200
angle_coeff 11 37.500 110.700
angle_coeff 12 37.500 110.700
angle_coeff 13 37.500 110.700
angle_coeff 14 37.500 110.700
angle_coeff 15 37.500 110.700
angle_coeff 16 35.000 109.500
angle_coeff 17 35.000 109.500
angle_coeff 18 37.500 110.700
angle_coeff 19 37.500 110.700
angle_coeff 20 37.500 110.700
angle_coeff 21 35.000 109.500
angle_coeff 22 35.000 109.500
angle_coeff 23 37.500 110.700
angle_coeff 24 37.500 110.700
angle_coeff 25 37.500 110.700
angle_coeff 26 35.000 109.500
angle_coeff 27 35.000 109.500
angle_coeff 28 37.500 110.700
angle_coeff 29 37.500 110.700
angle_coeff 30 37.500 110.700
angle_coeff 31 33.000 107.800
angle_coeff 32 37.500 110.700
angle_coeff 33 35.000 109.500
angle_coeff 34 50.000 113.000
angle_coeff 35 33.000 107.800
angle_coeff 36 33.000 107.800
angle_coeff 37 33.000 107.800
angle_coeff 38 33.000 107.800
angle_coeff 39 37.500 110.700
angle_coeff 40 37.500 110.700
angle_coeff 41 33.000 107.800
angle_coeff 42 33.000 107.800
angle_coeff 43 33.000 107.800
angle_coeff 44 37.500 110.700
angle_coeff 45 50.000 113.000
angle_coeff 46 33.000 107.800
angle_coeff 47 33.000 107.800
angle_coeff 48 33.000 107.800
angle_coeff 49 35.000 109.500
angle_coeff 50 33.000 107.800
angle_coeff 51 33.000 107.800
angle_coeff 52 37.500 110.700
angle_coeff 53 33.000 107.800
angle_coeff 54 33.000 107.800
angle_coeff 55 50.000 113.000
angle_coeff 56 37.500 110.700
angle_coeff 57 33.000 107.800

dihedral_coeff 1 1.438 -0.124 0.264 0.000
dihedral_coeff 2 1.438 -0.124 0.264 0.000
dihedral_coeff 3 1.438 -0.124 0.264 0.000
dihedral_coeff 4 1.438 -0.124 0.264 0.000
dihedral_coeff 5 0.000 0.000 0.384 0.000
dihedral_coeff 6 0.000 0.000 0.384 0.000
dihedral_coeff 7 0.000 0.000 0.384 0.000
dihedral_coeff 8 0.000 0.000 0.384 0.000
dihedral_coeff 9 0.000 0.000 0.302 0.000
dihedral_coeff 10 0.000 0.000 0.302 0.000
dihedral_coeff 11 0.000 0.000 0.300 0.000
dihedral_coeff 12 0.000 0.000 0.300 0.000
dihedral_coeff 13 1.438 -0.124 0.264 0.000
dihedral_coeff 14 0.000 0.000 0.302 0.000
dihedral_coeff 15 0.000 0.000 0.384 0.000
dihedral_coeff 16 0.000 0.000 0.302 0.000
dihedral_coeff 17 0.000 0.000 0.300 0.000
dihedral_coeff 18 0.000 0.000 0.300 0.000
dihedral_coeff 19 0.000 0.000 0.302 0.000
dihedral_coeff 20 0.000 0.000 0.302 0.000
dihedral_coeff 21 1.438 -0.124 0.264 0.000
dihedral_coeff 22 0.000 0.000 0.302 0.000
dihedral_coeff 23 0.000 0.000 0.300 0.000
dihedral_coeff 24 0.000 0.000 0.384 0.000
dihedral_coeff 25 0.000 0.000 0.300 0.000
dihedral_coeff 26 0.000 0.000 0.302 0.000
dihedral_coeff 27 0.000 0.000 0.302 0.000
dihedral_coeff 28 0.000 0.000 0.300 0.000
dihedral_coeff 29 0.000 0.000 0.300 0.000
dihedral_coeff 30 0.000 0.000 0.302 0.000
dihedral_coeff 31 0.000 0.000 0.300 0.000
dihedral_coeff 32 0.000 0.000 0.300 0.000
dihedral_coeff 33 0.000 0.000 0.300 0.000
dihedral_coeff 34 0.000 0.000 0.384 0.000
dihedral_coeff 35 0.000 0.000 0.302 0.000
dihedral_coeff 36 0.000 0.000 0.300 0.000
dihedral_coeff 37 0.000 0.000 0.302 0.000
dihedral_coeff 38 0.000 0.000 0.384 0.000
dihedral_coeff 39 0.000 0.000 0.300 0.000
dihedral_coeff 40 0.000 0.000 0.384 0.000
dihedral_coeff 41 0.000 0.000 0.300 0.000
dihedral_coeff 42 0.000 0.000 0.302 0.000
dihedral_coeff 43 0.000 0.000 0.302 0.000
dihedral_coeff 44 0.000 0.000 0.302 0.000
dihedral_coeff 45 0.000 0.000 0.302 0.000
dihedral_coeff 46 0.000 0.000 0.302 0.000
dihedral_coeff 47 0.000 0.000 0.302 0.000
dihedral_coeff 48 0.000 0.000 0.302 0.000
dihedral_coeff 49 0.000 0.000 0.384 0.000
dihedral_coeff 50 0.000 0.000 0.302 0.000
dihedral_coeff 51 0.000 0.000 0.300 0.000
dihedral_coeff 52 0.000 0.000 0.300 0.000
dihedral_coeff 53 0.000 0.000 0.302 0.000
dihedral_coeff 54 1.438 -0.124 0.264 0.000
dihedral_coeff 55 0.000 0.000 0.300 0.000
dihedral_coeff 56 0.000 0.000 0.384 0.000
dihedral_coeff 57 0.000 0.000 0.302 0.000
dihedral_coeff 58 1.438 -0.124 0.264 0.000
dihedral_coeff 59 0.000 0.000 0.300 0.000
dihedral_coeff 60 1.438 -0.124 0.264 0.000
dihedral_coeff 61 1.438 -0.124 0.264 0.000
dihedral_coeff 62 0.000 0.000 0.300 0.000
dihedral_coeff 63 0.000 0.000 0.300 0.000
dihedral_coeff 64 0.000 0.000 0.300 0.000
dihedral_coeff 65 0.000 0.000 0.300 0.000
dihedral_coeff 66 0.000 0.000 0.302 0.000
dihedral_coeff 67 1.438 -0.124 0.264 0.000
dihedral_coeff 68 0.000 0.000 0.300 0.000
dihedral_coeff 69 1.438 -0.124 0.264 0.000
dihedral_coeff 70 0.000 0.000 0.302 0.000
dihedral_coeff 71 0.000 0.000 0.300 0.000
dihedral_coeff 72 0.000 0.000 0.384 0.000

improper_coeff 1 0.000 -1 2
improper_coeff 2 0.000 -1 2
improper_coeff 3 0.000 -1 2
improper_coeff 4 0.000 -1 2
improper_coeff 5 0.000 -1 2
improper_coeff 6 0.000 -1 2
improper_coeff 7 0.000 -1 2
improper_coeff 8 0.000 -1 2
improper_coeff 9 0.000 -1 2
improper_coeff 10 0.000 -1 2
improper_coeff 11 0.000 -1 2
improper_coeff 12 0.000 -1 2
improper_coeff 13 0.000 -1 2
improper_coeff 14 0.000 -1 2
improper_coeff 15 0.000 -1 2
improper_coeff 16 0.000 -1 2
improper_coeff 17 0.000 -1 2
improper_coeff 18 0.000 -1 2



# ================= ff_tfb.in =================
# molecule ID filename toff 33 boff 31 aoff 57 doff 72 ioff 18

# ===TFB MASSES===
mass 34 10.811
mass 35 18.998

# ===TFB COEFFICIENTS===
pair_coeff 34 0.095 3.5814
pair_coeff 35 0.060 3.1181
