
# ===TEA MASSES===
mass 1     12.011  
mass 2     12.011  
mass 3     14.007  
mass 4     12.011  
mass 5     12.011  
mass 6     12.011  
mass 7     12.011  
mass 8     12.011  
mass 9     12.011  
mass 10     1.008  
mass 11     1.008  
mass 12     1.008  
mass 13     1.008  
mass 14     1.008  
mass 15     1.008  
mass 16     1.008  
mass 17     1.008  
mass 18     1.008  
mass 19     1.008  
mass 20     1.008  
mass 21     1.008  
mass 22     1.008  
mass 23     1.008  
mass 24     1.008  
mass 25     1.008  
mass 26     1.008  
mass 27     1.008  
mass 28     1.008  
mass 29     1.008  

pair_modify mix arithmetic

# ===TEA COEFFICIENTS===
pair_coeff 1      0.066  3.5000000 
pair_coeff 2      0.066  3.5000000 
pair_coeff 3      0.170  3.2500000 
pair_coeff 4      0.066  3.5000000 
pair_coeff 5      0.066  3.5000000 
pair_coeff 6      0.066  3.5000000 
pair_coeff 7      0.066  3.5000000 
pair_coeff 8      0.066  3.5000000 
pair_coeff 9      0.066  3.5000000 
pair_coeff 10      0.030  2.5000000 
pair_coeff 11      0.030  2.5000000 
pair_coeff 12      0.030  2.5000000 
pair_coeff 13      0.030  2.5000000 
pair_coeff 14      0.030  2.5000000 
pair_coeff 15      0.030  2.5000000 
pair_coeff 16      0.030  2.5000000 
pair_coeff 17      0.030  2.5000000 
pair_coeff 18      0.030  2.5000000 
pair_coeff 19      0.030  2.5000000 
pair_coeff 20      0.030  2.5000000 
pair_coeff 21      0.030  2.5000000 
pair_coeff 22      0.030  2.5000000 
pair_coeff 23      0.030  2.5000000 
pair_coeff 24      0.030  2.5000000 
pair_coeff 25      0.030  2.5000000 
pair_coeff 26      0.030  2.5000000 
pair_coeff 27      0.030  2.5000000 
pair_coeff 28      0.030  2.5000000 
pair_coeff 29      0.030  2.5000000 

bond_coeff 1   268.0000     1.5290 
bond_coeff 2   367.0000     1.4710 
bond_coeff 3   367.0000     1.4710 
bond_coeff 4   268.0000     1.5290 
bond_coeff 5   367.0000     1.4710 
bond_coeff 6   268.0000     1.5290 
bond_coeff 7   367.0000     1.4710 
bond_coeff 8   268.0000     1.5290 
bond_coeff 9   340.0000     1.0900 
bond_coeff 10   340.0000     1.0900 
bond_coeff 11   340.0000     1.0900 
bond_coeff 12   340.0000     1.0900 
bond_coeff 13   340.0000     1.0900 
bond_coeff 14   340.0000     1.0900 
bond_coeff 15   340.0000     1.0900 
bond_coeff 16   340.0000     1.0900 
bond_coeff 17   340.0000     1.0900 
bond_coeff 18   340.0000     1.0900 
bond_coeff 19   340.0000     1.0900 
bond_coeff 20   340.0000     1.0900 
bond_coeff 21   340.0000     1.0900 
bond_coeff 22   340.0000     1.0900 
bond_coeff 23   340.0000     1.0900 
bond_coeff 24   340.0000     1.0900 
bond_coeff 25   340.0000     1.0900 
bond_coeff 26   340.0000     1.0900 
bond_coeff 27   340.0000     1.0900 
bond_coeff 28   340.0000     1.0900  

angle_coeff 1     80.000    111.200
angle_coeff 2     50.000    113.000
angle_coeff 3     80.000    111.200
angle_coeff 4     50.000    113.000
angle_coeff 5     80.000    111.200
angle_coeff 6     50.000    113.000
angle_coeff 7     80.000    111.200
angle_coeff 8     37.500    110.700
angle_coeff 9     37.500    110.700
angle_coeff 10     37.500    110.700
angle_coeff 11     37.500    110.700
angle_coeff 12     37.500    110.700
angle_coeff 13     35.000    109.500
angle_coeff 14     35.000    109.500
angle_coeff 15     37.500    110.700
angle_coeff 16     37.500    110.700
angle_coeff 17     37.500    110.700
angle_coeff 18     35.000    109.500
angle_coeff 19     35.000    109.500
angle_coeff 20     37.500    110.700
angle_coeff 21     37.500    110.700
angle_coeff 22     37.500    110.700
angle_coeff 23     35.000    109.500
angle_coeff 24     35.000    109.500
angle_coeff 25     37.500    110.700
angle_coeff 26     37.500    110.700
angle_coeff 27     37.500    110.700
angle_coeff 28     33.000    107.800
angle_coeff 29     37.500    110.700
angle_coeff 30     35.000    109.500
angle_coeff 31     50.000    113.000
angle_coeff 32     33.000    107.800
angle_coeff 33     33.000    107.800
angle_coeff 34     33.000    107.800
angle_coeff 35     33.000    107.800
angle_coeff 36     37.500    110.700
angle_coeff 37     37.500    110.700
angle_coeff 38     33.000    107.800
angle_coeff 39     33.000    107.800
angle_coeff 40     33.000    107.800
angle_coeff 41     37.500    110.700
angle_coeff 42     50.000    113.000
angle_coeff 43     33.000    107.800
angle_coeff 44     33.000    107.800
angle_coeff 45     33.000    107.800
angle_coeff 46     35.000    109.500
angle_coeff 47     33.000    107.800
angle_coeff 48     33.000    107.800
angle_coeff 49     37.500    110.700
angle_coeff 50     33.000    107.800
angle_coeff 51     33.000    107.800
angle_coeff 52     50.000    113.000
angle_coeff 53     37.500    110.700
angle_coeff 54     33.000    107.800

dihedral_coeff 1      1.438     -0.124      0.264      0.000 
dihedral_coeff 2      1.438     -0.124      0.264      0.000 
dihedral_coeff 3      1.438     -0.124      0.264      0.000 
dihedral_coeff 4      1.438     -0.124      0.264      0.000 
dihedral_coeff 5      0.000      0.000      0.384      0.000 
dihedral_coeff 6      0.000      0.000      0.384      0.000 
dihedral_coeff 7      0.000      0.000      0.384      0.000 
dihedral_coeff 8      0.000      0.000      0.384      0.000 
dihedral_coeff 9      0.000      0.000      0.302      0.000 
dihedral_coeff 10      0.000      0.000      0.302      0.000 
dihedral_coeff 11      0.000      0.000      0.300      0.000 
dihedral_coeff 12      0.000      0.000      0.300      0.000 
dihedral_coeff 13      1.438     -0.124      0.264      0.000 
dihedral_coeff 14      0.000      0.000      0.302      0.000 
dihedral_coeff 15      0.000      0.000      0.384      0.000 
dihedral_coeff 16      0.000      0.000      0.302      0.000 
dihedral_coeff 17      0.000      0.000      0.300      0.000 
dihedral_coeff 18      0.000      0.000      0.300      0.000 
dihedral_coeff 19      0.000      0.000      0.302      0.000 
dihedral_coeff 20      0.000      0.000      0.302      0.000 
dihedral_coeff 21      1.438     -0.124      0.264      0.000 
dihedral_coeff 22      0.000      0.000      0.302      0.000 
dihedral_coeff 23      0.000      0.000      0.300      0.000 
dihedral_coeff 24      0.000      0.000      0.384      0.000 
dihedral_coeff 25      0.000      0.000      0.300      0.000 
dihedral_coeff 26      0.000      0.000      0.302      0.000 
dihedral_coeff 27      0.000      0.000      0.302      0.000 
dihedral_coeff 28      0.000      0.000      0.300      0.000 
dihedral_coeff 29      0.000      0.000      0.300      0.000 
dihedral_coeff 30      0.000      0.000      0.302      0.000 
dihedral_coeff 31      0.000      0.000      0.300      0.000 
dihedral_coeff 32      0.000      0.000      0.300      0.000 
dihedral_coeff 33      0.000      0.000      0.300      0.000 
dihedral_coeff 34      0.000      0.000      0.384      0.000 
dihedral_coeff 35      0.000      0.000      0.302      0.000 
dihedral_coeff 36      0.000      0.000      0.300      0.000 
dihedral_coeff 37      0.000      0.000      0.302      0.000 
dihedral_coeff 38      0.000      0.000      0.384      0.000 
dihedral_coeff 39      0.000      0.000      0.300      0.000 
dihedral_coeff 40      0.000      0.000      0.384      0.000 
dihedral_coeff 41      0.000      0.000      0.300      0.000 
dihedral_coeff 42      0.000      0.000      0.302      0.000 
dihedral_coeff 43      0.000      0.000      0.302      0.000 
dihedral_coeff 44      0.000      0.000      0.302      0.000 
dihedral_coeff 45      0.000      0.000      0.302      0.000 
dihedral_coeff 46      0.000      0.000      0.302      0.000 
dihedral_coeff 47      0.000      0.000      0.302      0.000 
dihedral_coeff 48      0.000      0.000      0.302      0.000 
dihedral_coeff 49      0.000      0.000      0.384      0.000 
dihedral_coeff 50      0.000      0.000      0.302      0.000 
dihedral_coeff 51      0.000      0.000      0.300      0.000 
dihedral_coeff 52      0.000      0.000      0.300      0.000 
dihedral_coeff 53      0.000      0.000      0.302      0.000 
dihedral_coeff 54      1.438     -0.124      0.264      0.000 
dihedral_coeff 55      0.000      0.000      0.300      0.000 
dihedral_coeff 56      0.000      0.000      0.384      0.000 
dihedral_coeff 57      0.000      0.000      0.302      0.000 
dihedral_coeff 58      1.438     -0.124      0.264      0.000 
dihedral_coeff 59      0.000      0.000      0.300      0.000 
dihedral_coeff 60      1.438     -0.124      0.264      0.000 
dihedral_coeff 61      1.438     -0.124      0.264      0.000 
dihedral_coeff 62      0.000      0.000      0.300      0.000 
dihedral_coeff 63      0.000      0.000      0.300      0.000 
dihedral_coeff 64      0.000      0.000      0.300      0.000 
dihedral_coeff 65      0.000      0.000      0.300      0.000 
dihedral_coeff 66      0.000      0.000      0.302      0.000 
dihedral_coeff 67      1.438     -0.124      0.264      0.000 
dihedral_coeff 68      0.000      0.000      0.300      0.000 
dihedral_coeff 69      1.438     -0.124      0.264      0.000 
dihedral_coeff 70      0.000      0.000      0.302      0.000 
dihedral_coeff 71      0.000      0.000      0.300      0.000 
dihedral_coeff 72      0.000      0.000      0.384      0.000 

improper_coeff 1      0.000      -1       2 
improper_coeff 2      0.000      -1       2 
improper_coeff 3      0.000      -1       2 
improper_coeff 4      0.000      -1       2 
improper_coeff 5      0.000      -1       2 
improper_coeff 6      0.000      -1       2 
improper_coeff 7      0.000      -1       2 
improper_coeff 8      0.000      -1       2 
improper_coeff 9      0.000      -1       2 
improper_coeff 10      0.000      -1       2 
improper_coeff 11      0.000      -1       2 
improper_coeff 12      0.000      -1       2 
improper_coeff 13      0.000      -1       2 
improper_coeff 14      0.000      -1       2 
improper_coeff 15      0.000      -1       2 
improper_coeff 16      0.000      -1       2 
improper_coeff 17      0.000      -1       2 
improper_coeff 18      0.000      -1       2 

